100
128
42
28
21
12
64
44
60
7
63
34
41
20
43
23
29
18
29
22
54
22
13
12
62
29
20
1
15
13
26
16
19
12
63
5
36
2
52
62
14
48
33
60
4
15
15
54
24
27
18
59
18
49
37
13
36
32
53
24
38
58
41
64
44
35
14
9
24
53
26
4
15
53
17
20
26
17
8
3
3
18
2
40
30
16
31
47
11
21
52
16
27
18
63
6
3
53
17
28
39
36